
Gurobi 10.0.3 (linux64, gurobi_cl) logging started Fri Nov 10 17:30:03 2023

Set parameter Username
Set parameter TimeLimit to value 3600
Set parameter LogFile to value "RCPSP_1572.log"
Set parameter Threads to value 32
Academic license - for non-commercial use only - expires 2024-11-06
Using license file /home/jrivera6/gurobi-licenses/v1003/compute-0-36/gurobi.lic

Gurobi Optimizer version 10.0.3 build v10.0.3rc0 (linux64)
Copyright (c) 2023, Gurobi Optimization, LLC

Read MPS format model from file RCPSP_1572.mps
Reading time = 0.15 seconds
RCPSP_1572: 75214 rows, 29890 columns, 266028 nonzeros

CPU model: Intel(R) Xeon(R) Gold 6130 CPU @ 2.10GHz, instruction set [SSE2|AVX|AVX2|AVX512]
Thread count: 32 physical cores, 32 logical processors, using up to 32 threads

Optimize a model with 75214 rows, 29890 columns and 266028 nonzeros
Model fingerprint: 0xd25b9f47
Variable types: 122 continuous, 29768 integer (29768 binary)
Coefficient statistics:
  Matrix range     [1e+00, 7e+02]
  Objective range  [1e+00, 1e+00]
  Bounds range     [1e+00, 1e+00]
  RHS range        [1e+00, 7e+02]
Presolve removed 10830 rows and 1449 columns (presolve time = 5s) ...
Presolve removed 11228 rows and 1847 columns
Presolve time: 5.77s
Presolved: 63986 rows, 28043 columns, 238329 nonzeros
Variable types: 121 continuous, 27922 integer (27922 binary)

Deterministic concurrent LP optimizer: primal and dual simplex (primal and dual model)
Showing first log only...

Root relaxation presolved: 63986 rows, 28043 columns, 238329 nonzeros


Root simplex log...

Iteration    Objective       Primal Inf.    Dual Inf.      Time
       0    8.6485279e+01   5.828017e-03   2.275654e+08      8s
    4844    8.6000000e+01   0.000000e+00   0.000000e+00     10s
Concurrent spin time: 2.12s

Solved with dual simplex (dual model)

Root relaxation: objective 8.600000e+01, 31589 iterations, 5.26 seconds (0.34 work units)
Total elapsed time = 19.85s
Total elapsed time = 23.82s

    Nodes    |    Current Node    |     Objective Bounds      |     Work
 Expl Unexpl |  Obj  Depth IntInf | Incumbent    BestBd   Gap | It/Node Time

     0     0   86.00000    0  682          -   86.00000      -     -   31s
     0     0   86.00000    0 2407          -   86.00000      -     -  116s
     0     0   86.00000    0 2145          -   86.00000      -     -  139s
     0     0   86.00000    0 2444          -   86.00000      -     -  152s
     0     0   86.00000    0 2251          -   86.00000      -     -  159s
     0     0   86.00000    0 2241          -   86.00000      -     -  160s
     0     0   86.00000    0 2167          -   86.00000      -     -  441s
     0     0   86.00000    0 2128          -   86.00000      -     -  442s
     0     0   86.00000    0 2128          -   86.00000      -     -  443s
     0     0   86.00000    0 2126          -   86.00000      -     -  443s
     0     0   86.00000    0  397          -   86.00000      -     -  484s
     0     0   86.00000    0 1412          -   86.00000      -     -  494s
     0     0   86.00000    0 1379          -   86.00000      -     -  495s
     0     0   86.00000    0 1248          -   86.00000      -     -  495s
     0     0   86.00000    0  535          -   86.00000      -     -  526s
     0     0   86.00000    0 1164          -   86.00000      -     -  530s
     0     0   86.00000    0 1142          -   86.00000      -     -  530s
     0     0   86.00000    0  426          -   86.00000      -     -  564s
     0     0   86.00000    0 1269          -   86.00000      -     -  567s
     0     0   86.00000    0 1253          -   86.00000      -     -  568s
     0     0   86.00000    0 1249          -   86.00000      -     -  568s
     0     0   86.00000    0  490          -   86.00000      -     -  587s
     0     0   86.00000    0  474          -   86.00000      -     -  587s
     0     0   86.00000    0 1225          -   86.00000      -     -  590s
     0     0   86.00000    0  236          -   86.00000      -     -  613s
     0     0   86.00000    0  558          -   86.00000      -     -  615s
     0     0   86.00000    0  852          -   86.00000      -     -  618s
     0     0   86.00000    0  772          -   86.00000      -     -  618s
     0     0   86.00000    0  768          -   86.00000      -     -  618s
     0     0   86.00000    0  508          -   86.00000      -     -  633s
     0     0   86.00000    0 1152          -   86.00000      -     -  637s
     0     0   86.00000    0 1024          -   86.00000      -     -  638s
     0     0   86.00000    0 1006          -   86.00000      -     -  638s
     0     0   86.00000    0 1004          -   86.00000      -     -  638s
     0     0   86.00000    0  183          -   86.00000      -     -  695s
     0     0   86.00000    0  938          -   86.00000      -     -  702s
     0     0   86.00000    0  938          -   86.00000      -     -  703s
     0     0   86.00000    0  914          -   86.00000      -     -  703s
     0     0   86.00000    0  416          -   86.00000      -     -  759s
     0     0   86.00000    0  414          -   86.00000      -     -  792s
     0     0   86.00000    0  412          -   86.00000      -     -  792s
     0     0   86.00000    0  256          -   86.00000      -     - 1139s
     0     2   86.00000    0  183          -   86.00000      -     - 1393s
     1     4   86.00000    1  183          -   86.00000      -  7460 1512s
     3     8   86.00000    2 1348          -   86.00000      -  2983 3637s

Cutting planes:
  Gomory: 37
  Cover: 76
  Implied bound: 146
  MIR: 2048
  StrongCG: 2
  RLT: 765
  Relax-and-lift: 472

Explored 7 nodes (310150 simplex iterations) in 4181.35 seconds (106.28 work units)
Thread count was 32 (of 32 available processors)

Solution count 0

Time limit reached
Best objective -, best bound 8.600000000000e+01, gap -

Unable to retrieve attribute 'X'

